(set-logic HORN)
(declare-fun state (Int Int Int Int (Array Int Int) Int Int Int Int (Array Int Int) Bool) Bool)
(assert (forall ((|F_0| Int) (|B_0| Int) (|G_0| Int) (|C_0| Int) (|I| (Array Int Int)) (|A_0| Int) (|D_0| Int) (|H| Int) (|E_0| Int) (|J| (Array Int Int)) (|.loc.12| Bool) (|.loc.23| Bool) (|.y.22| (Array Int Int)) (|.y.21| Int) (|.y.18| Int) (|.y.17| (Array Int Int)) (|.y.16| Int) (|.y.13| Int) (|.y.20| Int) (|.y.19| Int) (|.y.14| Int) (|.y.15| Int)) (=> (and (and (and (and (and (and (and (= D_0 1) (= G_0 0)) (= B_0 1)) (= I J)) (= F_0 A_0)) (= H (select J A_0))) (= C_0 E_0)) (not .loc.12)) (state |F_0| |B_0| |G_0| |C_0| |I| |A_0| |D_0| |H| |E_0| |J| |.loc.12|))))
(assert (forall ((|F_0| Int) (|B_0| Int) (|G_0| Int) (|C_0| Int) (|I| (Array Int Int)) (|A_0| Int) (|D_0| Int) (|H| Int) (|E_0| Int) (|J| (Array Int Int)) (|.loc.12| Bool) (|.loc.23| Bool) (|.y.22| (Array Int Int)) (|.y.21| Int) (|.y.18| Int) (|.y.17| (Array Int Int)) (|.y.16| Int) (|.y.13| Int) (|.y.20| Int) (|.y.19| Int) (|.y.14| Int) (|.y.15| Int)) (=> (and (state |F_0| |B_0| |G_0| |C_0| |I| |A_0| |D_0| |H| |E_0| |J| |.loc.12|) (let ((.def_43 (select I (+ F_0 (* 4 G_0))))) (let ((.def_47 (<= E_0 D_0))) (let ((.def_49 (<= C_0 B_0))) (let ((.def_53 (not .def_49))) (let ((.def_54 (not .def_47))) (let ((.def_56 (not .loc.23))) (let ((.def_59 (= J .y.22))) (let ((.def_62 (= E_0 .y.21))) (let ((.def_65 (= A_0 .y.18))) (let ((.def_68 (= I .y.17))) (let ((.def_71 (= C_0 .y.16))) (let ((.def_74 (= F_0 .y.13))) (let ((.def_75 (and (and (and (and (and (and (and (and .def_53 .def_54) .def_56) .def_59) .def_62) .def_65) .def_68) .def_71) .def_74))) (let ((.def_78 (select J (+ A_0 (* 4 D_0))))) (let ((.def_80 (= .def_78 .y.20))) (let ((.def_82 (<= H .def_78))) (let ((.def_88 (= (+ D_0 (* (- 1) .y.19)) (- 1)))) (let ((.def_93 (= (+ B_0 (* (- 1) .y.14)) (- 1)))) (let ((.def_101 (= (ite (<= .def_43 (select I (+ F_0 (* 4 B_0)))) B_0 G_0) .y.15))) (let ((.def_107 (= H .y.20))) (let ((.def_109 (not .def_82))) (let ((.def_136 (and .def_74 (and .def_71 (and .def_68 (and .def_65 (and .def_62 (and .def_59 (and .def_56 (and .def_49 .def_54)))))))))) (let ((.def_140 (= G_0 .y.15))) (let ((.def_142 (= B_0 .y.14))) (and (not .loc.12) (or (or (or (or (or (and (and (and (or (not (= I J)) (not (= H .def_43))) .def_47) .def_49) .loc.23) (and (and (and (and (and .def_75 .def_80) .def_82) .def_88) .def_93) .def_101)) (and (and (and .def_101 (and .def_93 (and .def_75 .def_88))) .def_107) .def_109)) (and (or .def_47 .def_82) (and (or .def_47 .def_109) (and (= D_0 .y.19) (and .def_107 (and .def_101 (and .def_93 (and .def_74 (and .def_71 (and .def_68 (and .def_65 (and .def_62 (and .def_59 (and .def_53 .def_56)))))))))))))) (and (and (and .def_88 (and .def_82 (and .def_80 .def_136))) .def_140) .def_142)) (and .def_142 (and .def_140 (and .def_109 (and .def_107 (and .def_88 .def_136)))))))))))))))))))))))))))))))) (state |.y.13| |.y.14| |.y.15| |.y.16| |.y.17| |.y.18| |.y.19| |.y.20| |.y.21| |.y.22| |.loc.23|))))
(assert (forall ((|F_0| Int) (|B_0| Int) (|G_0| Int) (|C_0| Int) (|I| (Array Int Int)) (|A_0| Int) (|D_0| Int) (|H| Int) (|E_0| Int) (|J| (Array Int Int)) (|.loc.12| Bool) (|.loc.23| Bool) (|.y.22| (Array Int Int)) (|.y.21| Int) (|.y.18| Int) (|.y.17| (Array Int Int)) (|.y.16| Int) (|.y.13| Int) (|.y.20| Int) (|.y.19| Int) (|.y.14| Int) (|.y.15| Int)) (=> (state |F_0| |B_0| |G_0| |C_0| |I| |A_0| |D_0| |H| |E_0| |J| |.loc.12|) (not .loc.12))))
(check-sat)
